50842
48,75,192,379,414,492,507,676,686,816,857,1026,1081,1143,1157,1213,1268,1297,1322,1473,1489,1555,1584,1590,1607,1805,1813,2009,2039,2041,2076,2134,2298,2310,2338,2356,2410,2589,2671,2677,2682,2716,2823,2829,2844,2860,2861,3009,3032,3085,3215,3216,3228,3320,3364,3409,3430,3672,3756,3867,3983,4047,4090,4095,4148,4152,4183,4309,4322,4375,4403,4487,4544,4949,5082,5167,5256,5351,5407,5409,5431,5476,5546,5834,5906,6042,6096,6120,6195,6201,6235,6250,6573,6590,6628,6664,6689,6699,7012,7068,7117,7149,7217,7241,7278,7512,7515,7879,7915,7962,8195,8270,8579,8660,8757,8774,8803,9075,9100,9166,9242,9245,9282,9353,9403,9634,9646,9887,9933
